33D32945 STP File, STP Format Version 1.0

SECTION Comments
Name "shell_n11_d2_s14"
Problem "Euclidean Steiner Tree Problem"
Remark "Generated with STPGenerator. 2 dimensions."
END

SECTION Graph
Nodes 11
END

SECTION Coordinates
DD 0 -0.9903433486 -0.1386364020
DD 1 -0.9892226038 0.1464193983
DD 2 -0.9771451609 0.2125731275
DD 3 0.8466911103 0.5320847337
DD 4 -0.8667017875 0.4988266347
DD 5 0.2523887487 -0.9676259192
DD 6 0.9525169455 -0.3044855803
DD 7 -0.0260647273 0.9996602573
DD 8 -0.7676338610 -0.6408886452
DD 9 0.9158406799 0.4015418396
DD 10 -0.5134856316 -0.8580981914
END
